c nIsolatedPIs 0
c maxPI 32
p cnf 333 904
c gate 33 -12 28 0
-12 -33 0
28 -33 0
12 -28 33 0
c gate 34 12 -28 0
12 -34 0
-28 -34 0
-12 28 34 0
c gate 35 -11 27 0
-11 -35 0
27 -35 0
11 -27 35 0
c gate 36 11 -27 0
11 -36 0
-27 -36 0
-11 27 36 0
c gate 37 -10 26 0
-10 -37 0
26 -37 0
10 -26 37 0
c gate 38 10 -26 0
10 -38 0
-26 -38 0
-10 26 38 0
c gate 39 -9 25 0
-9 -39 0
25 -39 0
9 -25 39 0
c gate 40 8 -24 0
8 -40 0
-24 -40 0
-8 24 40 0
c gate 41 9 -25 0
9 -41 0
-25 -41 0
-9 25 41 0
c gate 42 -40 -41 0
-40 -42 0
-41 -42 0
40 41 42 0
c gate 43 7 -23 0
7 -43 0
-23 -43 0
-7 23 43 0
c gate 44 6 -22 0
6 -44 0
-22 -44 0
-6 22 44 0
c gate 45 -5 21 0
-5 -45 0
21 -45 0
5 -21 45 0
c gate 46 -4 20 0
-4 -46 0
20 -46 0
4 -20 46 0
c gate 47 -3 19 0
-3 -47 0
19 -47 0
3 -19 47 0
c gate 48 -2 18 0
-2 -48 0
18 -48 0
2 -18 48 0
c gate 49 -1 17 0
-1 -49 0
17 -49 0
1 -17 49 0
c gate 50 -48 -49 0
-48 -50 0
-49 -50 0
48 49 50 0
c gate 51 2 -18 0
2 -51 0
-18 -51 0
-2 18 51 0
c gate 52 3 -19 0
3 -52 0
-19 -52 0
-3 19 52 0
c gate 53 -51 -52 0
-51 -53 0
-52 -53 0
51 52 53 0
c gate 54 -50 53 0
-50 -54 0
53 -54 0
50 -53 54 0
c gate 55 -47 -54 0
-47 -55 0
-54 -55 0
47 54 55 0
c gate 56 -46 55 0
-46 -56 0
55 -56 0
46 -55 56 0
c gate 57 4 -20 0
4 -57 0
-20 -57 0
-4 20 57 0
c gate 58 5 -21 0
5 -58 0
-21 -58 0
-5 21 58 0
c gate 59 -57 -58 0
-57 -59 0
-58 -59 0
57 58 59 0
c gate 60 -56 59 0
-56 -60 0
59 -60 0
56 -59 60 0
c gate 61 -45 -60 0
-45 -61 0
-60 -61 0
45 60 61 0
c gate 62 -44 -61 0
-44 -62 0
-61 -62 0
44 61 62 0
c gate 63 -6 22 0
-6 -63 0
22 -63 0
6 -22 63 0
c gate 64 -62 -63 0
-62 -64 0
-63 -64 0
62 63 64 0
c gate 65 -43 -64 0
-43 -65 0
-64 -65 0
43 64 65 0
c gate 66 -7 23 0
-7 -66 0
23 -66 0
7 -23 66 0
c gate 67 -8 24 0
-8 -67 0
24 -67 0
8 -24 67 0
c gate 68 -66 -67 0
-66 -68 0
-67 -68 0
66 67 68 0
c gate 69 -65 68 0
-65 -69 0
68 -69 0
65 -68 69 0
c gate 70 42 -69 0
42 -70 0
-69 -70 0
-42 69 70 0
c gate 71 -39 -70 0
-39 -71 0
-70 -71 0
39 70 71 0
c gate 72 -38 -71 0
-38 -72 0
-71 -72 0
38 71 72 0
c gate 73 -37 -72 0
-37 -73 0
-72 -73 0
37 72 73 0
c gate 74 -36 -73 0
-36 -74 0
-73 -74 0
36 73 74 0
c gate 75 -35 -74 0
-35 -75 0
-74 -75 0
35 74 75 0
c gate 76 -34 -75 0
-34 -76 0
-75 -76 0
34 75 76 0
c gate 77 -33 -76 0
-33 -77 0
-76 -77 0
33 76 77 0
c gate 78 13 29 0
13 -78 0
29 -78 0
-13 -29 78 0
c gate 79 -13 -29 0
-13 -79 0
-29 -79 0
13 29 79 0
c gate 80 -78 -79 0
-78 -80 0
-79 -80 0
78 79 80 0
c gate 81 77 -80 0
77 -81 0
-80 -81 0
-77 80 81 0
c gate 82 -77 80 0
-77 -82 0
80 -82 0
77 -80 82 0
c gate 83 -81 -82 0
-81 -83 0
-82 -83 0
81 82 83 0
c gate 84 -55 57 0
-55 -84 0
57 -84 0
55 -57 84 0
c gate 85 -44 -63 0
-44 -85 0
-63 -85 0
44 63 85 0
c gate 86 -45 -58 0
-45 -86 0
-58 -86 0
45 58 86 0
c gate 87 85 86 0
85 -87 0
86 -87 0
-85 -86 87 0
c gate 88 84 87 0
84 -88 0
87 -88 0
-84 -87 88 0
c gate 89 -43 88 0
-43 -89 0
88 -89 0
43 -88 89 0
c gate 90 69 -89 0
69 -90 0
-89 -90 0
-69 89 90 0
c gate 91 42 -90 0
42 -91 0
-90 -91 0
-42 90 91 0
c gate 92 -39 -91 0
-39 -92 0
-91 -92 0
39 91 92 0
c gate 93 -38 -92 0
-38 -93 0
-92 -93 0
38 92 93 0
c gate 94 -37 -93 0
-37 -94 0
-93 -94 0
37 93 94 0
c gate 95 -33 -35 0
-33 -95 0
-35 -95 0
33 35 95 0
c gate 96 94 95 0
94 -96 0
95 -96 0
-94 -95 96 0
c gate 97 -34 -96 0
-34 -97 0
-96 -97 0
34 96 97 0
c gate 98 -80 97 0
-80 -98 0
97 -98 0
80 -97 98 0
c gate 99 80 -97 0
80 -99 0
-97 -99 0
-80 97 99 0
c gate 100 -98 -99 0
-98 -100 0
-99 -100 0
98 99 100 0
c gate 101 83 100 0
83 -101 0
100 -101 0
-83 -100 101 0
c gate 102 -33 -34 0
-33 -102 0
-34 -102 0
33 34 102 0
c gate 103 -94 -102 0
-94 -103 0
-102 -103 0
94 102 103 0
c gate 104 75 103 0
75 -104 0
103 -104 0
-75 -103 104 0
c gate 105 -101 -104 0
-101 -105 0
-104 -105 0
101 104 105 0
c gate 106 -83 -100 0
-83 -106 0
-100 -106 0
83 100 106 0
c gate 107 105 -106 0
105 -107 0
-106 -107 0
-105 106 107 0
c gate 108 14 30 0
14 -108 0
30 -108 0
-14 -30 108 0
c gate 109 -12 -28 0
-12 -109 0
-28 -109 0
12 28 109 0
c gate 110 11 27 0
11 -110 0
27 -110 0
-11 -27 110 0
c gate 111 -35 -36 0
-35 -111 0
-36 -111 0
35 36 111 0
c gate 112 -9 -25 0
-9 -112 0
-25 -112 0
9 25 112 0
c gate 113 9 25 0
9 -113 0
25 -113 0
-9 -25 113 0
c gate 114 -112 -113 0
-112 -114 0
-113 -114 0
112 113 114 0
c gate 115 8 24 0
8 -115 0
24 -115 0
-8 -24 115 0
c gate 116 -8 -24 0
-8 -116 0
-24 -116 0
8 24 116 0
c gate 117 7 23 0
7 -117 0
23 -117 0
-7 -23 117 0
c gate 118 6 22 0
6 -118 0
22 -118 0
-6 -22 118 0
c gate 119 5 21 0
5 -119 0
21 -119 0
-5 -21 119 0
c gate 120 -4 -20 0
-4 -120 0
-20 -120 0
4 20 120 0
c gate 121 4 20 0
4 -121 0
20 -121 0
-4 -20 121 0
c gate 122 -120 -121 0
-120 -122 0
-121 -122 0
120 121 122 0
c gate 123 3 19 0
3 -123 0
19 -123 0
-3 -19 123 0
c gate 124 -47 -52 0
-47 -124 0
-52 -124 0
47 52 124 0
c gate 125 -48 -51 0
-48 -125 0
-51 -125 0
48 51 125 0
c gate 126 1 17 0
1 -126 0
17 -126 0
-1 -17 126 0
c gate 127 -125 126 0
-125 -127 0
126 -127 0
125 -126 127 0
c gate 128 2 18 0
2 -128 0
18 -128 0
-2 -18 128 0
c gate 129 -127 -128 0
-127 -129 0
-128 -129 0
127 128 129 0
c gate 130 -124 -129 0
-124 -130 0
-129 -130 0
124 129 130 0
c gate 131 -123 -130 0
-123 -131 0
-130 -131 0
123 130 131 0
c gate 132 122 131 0
122 -132 0
131 -132 0
-122 -131 132 0
c gate 133 -120 -132 0
-120 -133 0
-132 -133 0
120 132 133 0
c gate 134 -86 133 0
-86 -134 0
133 -134 0
86 -133 134 0
c gate 135 -119 -134 0
-119 -135 0
-134 -135 0
119 134 135 0
c gate 136 -85 -135 0
-85 -136 0
-135 -136 0
85 135 136 0
c gate 137 -118 -136 0
-118 -137 0
-136 -137 0
118 136 137 0
c gate 138 -7 -23 0
-7 -138 0
-23 -138 0
7 23 138 0
c gate 139 -117 -138 0
-117 -139 0
-138 -139 0
117 138 139 0
c gate 140 -137 139 0
-137 -140 0
139 -140 0
137 -139 140 0
c gate 141 -117 -140 0
-117 -141 0
-140 -141 0
117 140 141 0
c gate 142 -116 -141 0
-116 -142 0
-141 -142 0
116 141 142 0
c gate 143 -115 -142 0
-115 -143 0
-142 -143 0
115 142 143 0
c gate 144 114 143 0
114 -144 0
143 -144 0
-114 -143 144 0
c gate 145 -112 -144 0
-112 -145 0
-144 -145 0
112 144 145 0
c gate 146 10 145 0
10 -146 0
145 -146 0
-10 -145 146 0
c gate 147 -37 -38 0
-37 -147 0
-38 -147 0
37 38 147 0
c gate 148 -145 -147 0
-145 -148 0
-147 -148 0
145 147 148 0
c gate 149 26 -148 0
26 -149 0
-148 -149 0
-26 148 149 0
c gate 150 -146 -149 0
-146 -150 0
-149 -150 0
146 149 150 0
c gate 151 -111 -150 0
-111 -151 0
-150 -151 0
111 150 151 0
c gate 152 -110 -151 0
-110 -152 0
-151 -152 0
110 151 152 0
c gate 153 -109 -152 0
-109 -153 0
-152 -153 0
109 152 153 0
c gate 154 12 28 0
12 -154 0
28 -154 0
-12 -28 154 0
c gate 155 -78 -154 0
-78 -155 0
-154 -155 0
78 154 155 0
c gate 156 -153 155 0
-153 -156 0
155 -156 0
153 -155 156 0
c gate 157 -14 -30 0
-14 -157 0
-30 -157 0
14 30 157 0
c gate 158 -79 -157 0
-79 -158 0
-157 -158 0
79 157 158 0
c gate 159 -156 158 0
-156 -159 0
158 -159 0
156 -158 159 0
c gate 160 -108 -159 0
-108 -160 0
-159 -160 0
108 159 160 0
c gate 161 -16 -32 0
-16 -161 0
-32 -161 0
16 32 161 0
c gate 162 16 32 0
16 -162 0
32 -162 0
-16 -32 162 0
c gate 163 -161 -162 0
-161 -163 0
-162 -163 0
161 162 163 0
c gate 164 15 31 0
15 -164 0
31 -164 0
-15 -31 164 0
c gate 165 -6 -22 0
-6 -165 0
-22 -165 0
6 22 165 0
c gate 166 18 -129 0
18 -166 0
-129 -166 0
-18 129 166 0
c gate 167 -123 -166 0
-123 -167 0
-166 -167 0
123 166 167 0
c gate 168 122 -167 0
122 -168 0
-167 -168 0
-122 167 168 0
c gate 169 -121 -168 0
-121 -169 0
-168 -169 0
121 168 169 0
c gate 170 -119 169 0
-119 -170 0
169 -170 0
119 -169 170 0
c gate 171 -165 -170 0
-165 -171 0
-170 -171 0
165 170 171 0
c gate 172 -138 171 0
-138 -172 0
171 -172 0
138 -171 172 0
c gate 173 -115 -172 0
-115 -173 0
-172 -173 0
115 172 173 0
c gate 174 114 -173 0
114 -174 0
-173 -174 0
-114 173 174 0
c gate 175 -113 -174 0
-113 -175 0
-174 -175 0
113 174 175 0
c gate 176 10 -175 0
10 -176 0
-175 -176 0
-10 175 176 0
c gate 177 -147 175 0
-147 -177 0
175 -177 0
147 -175 177 0
c gate 178 26 -177 0
26 -178 0
-177 -178 0
-26 177 178 0
c gate 179 -176 -178 0
-176 -179 0
-178 -179 0
176 178 179 0
c gate 180 -111 -179 0
-111 -180 0
-179 -180 0
111 179 180 0
c gate 181 -110 -180 0
-110 -181 0
-180 -181 0
110 180 181 0
c gate 182 -102 -181 0
-102 -182 0
-181 -182 0
102 181 182 0
c gate 183 -154 -182 0
-154 -183 0
-182 -183 0
154 182 183 0
c gate 184 -79 -183 0
-79 -184 0
-183 -184 0
79 183 184 0
c gate 185 -78 -108 0
-78 -185 0
-108 -185 0
78 108 185 0
c gate 186 -184 185 0
-184 -186 0
185 -186 0
184 -185 186 0
c gate 187 -15 -31 0
-15 -187 0
-31 -187 0
15 31 187 0
c gate 188 -157 -187 0
-157 -188 0
-187 -188 0
157 187 188 0
c gate 189 -186 188 0
-186 -189 0
188 -189 0
186 -188 189 0
c gate 190 -164 -189 0
-164 -190 0
-189 -190 0
164 189 190 0
c gate 191 163 190 0
163 -191 0
190 -191 0
-163 -190 191 0
c gate 192 -163 -190 0
-163 -192 0
-190 -192 0
163 190 192 0
c gate 193 -191 -192 0
-191 -193 0
-192 -193 0
191 192 193 0
c gate 194 -164 -187 0
-164 -194 0
-187 -194 0
164 187 194 0
c gate 195 -160 194 0
-160 -195 0
194 -195 0
160 -194 195 0
c gate 196 -164 -195 0
-164 -196 0
-195 -196 0
164 195 196 0
c gate 197 -163 196 0
-163 -197 0
196 -197 0
163 -196 197 0
c gate 198 163 -196 0
163 -198 0
-196 -198 0
-163 196 198 0
c gate 199 -197 -198 0
-197 -199 0
-198 -199 0
197 198 199 0
c gate 200 193 199 0
193 -200 0
199 -200 0
-193 -199 200 0
c gate 201 160 200 0
160 -201 0
200 -201 0
-160 -200 201 0
c gate 202 -84 -201 0
-84 -202 0
-201 -202 0
84 201 202 0
c gate 203 191 195 0
191 -203 0
195 -203 0
-191 -195 203 0
c gate 204 202 -203 0
202 -204 0
-203 -204 0
-202 203 204 0
c gate 205 -114 173 0
-114 -205 0
173 -205 0
114 -173 205 0
c gate 206 -174 -205 0
-174 -206 0
-205 -206 0
174 205 206 0
c gate 207 -114 -143 0
-114 -207 0
-143 -207 0
114 143 207 0
c gate 208 -144 -207 0
-144 -208 0
-207 -208 0
144 207 208 0
c gate 209 206 208 0
206 -209 0
208 -209 0
-206 -208 209 0
c gate 210 -206 -208 0
-206 -210 0
-208 -210 0
206 208 210 0
c gate 211 -209 -210 0
-209 -211 0
-210 -211 0
209 210 211 0
c gate 212 142 173 0
142 -212 0
173 -212 0
-142 -173 212 0
c gate 213 137 -139 0
137 -213 0
-139 -213 0
-137 139 213 0
c gate 214 -140 -213 0
-140 -214 0
-213 -214 0
140 213 214 0
c gate 215 -139 171 0
-139 -215 0
171 -215 0
139 -171 215 0
c gate 216 139 -171 0
139 -216 0
-171 -216 0
-139 171 216 0
c gate 217 -215 -216 0
-215 -217 0
-216 -217 0
215 216 217 0
c gate 218 -214 -217 0
-214 -218 0
-217 -218 0
214 217 218 0
c gate 219 214 217 0
214 -219 0
217 -219 0
-214 -217 219 0
c gate 220 85 135 0
85 -220 0
135 -220 0
-85 -135 220 0
c gate 221 -136 -220 0
-136 -221 0
-220 -221 0
136 220 221 0
c gate 222 85 170 0
85 -222 0
170 -222 0
-85 -170 222 0
c gate 223 -85 -170 0
-85 -223 0
-170 -223 0
85 170 223 0
c gate 224 -222 -223 0
-222 -224 0
-223 -224 0
222 223 224 0
c gate 225 -221 224 0
-221 -225 0
224 -225 0
221 -224 225 0
c gate 226 86 -133 0
86 -226 0
-133 -226 0
-86 133 226 0
c gate 227 -134 -226 0
-134 -227 0
-226 -227 0
134 226 227 0
c gate 228 86 169 0
86 -228 0
169 -228 0
-86 -169 228 0
c gate 229 -86 -169 0
-86 -229 0
-169 -229 0
86 169 229 0
c gate 230 -228 -229 0
-228 -230 0
-229 -230 0
228 229 230 0
c gate 231 227 -230 0
227 -231 0
-230 -231 0
-227 230 231 0
c gate 232 221 -224 0
221 -232 0
-224 -232 0
-221 224 232 0
c gate 233 -225 -232 0
-225 -233 0
-232 -233 0
225 232 233 0
c gate 234 -231 233 0
-231 -234 0
233 -234 0
231 -233 234 0
c gate 235 -225 -234 0
-225 -235 0
-234 -235 0
225 234 235 0
c gate 236 -219 -235 0
-219 -236 0
-235 -236 0
219 235 236 0
c gate 237 18 -124 0
18 -237 0
-124 -237 0
-18 124 237 0
c gate 238 -129 -237 0
-129 -238 0
-237 -238 0
129 237 238 0
c gate 239 -227 230 0
-227 -239 0
230 -239 0
227 -230 239 0
c gate 240 -122 -131 0
-122 -240 0
-131 -240 0
122 131 240 0
c gate 241 -132 -240 0
-132 -241 0
-240 -241 0
132 240 241 0
c gate 242 -122 167 0
-122 -242 0
167 -242 0
122 -167 242 0
c gate 243 -168 -242 0
-168 -243 0
-242 -243 0
168 242 243 0
c gate 244 241 243 0
241 -244 0
243 -244 0
-241 -243 244 0
c gate 245 -2 130 0
-2 -245 0
130 -245 0
2 -130 245 0
c gate 246 -244 -245 0
-244 -246 0
-245 -246 0
244 245 246 0
c gate 247 -231 -246 0
-231 -247 0
-246 -247 0
231 246 247 0
c gate 248 -239 -247 0
-239 -248 0
-247 -248 0
239 247 248 0
c gate 249 234 248 0
234 -249 0
248 -249 0
-234 -248 249 0
c gate 250 238 249 0
238 -250 0
249 -250 0
-238 -249 250 0
c gate 251 236 -250 0
236 -251 0
-250 -251 0
-236 250 251 0
c gate 252 -218 -251 0
-218 -252 0
-251 -252 0
218 251 252 0
c gate 253 -212 252 0
-212 -253 0
252 -253 0
212 -252 253 0
c gate 254 -115 -116 0
-115 -254 0
-116 -254 0
115 116 254 0
c gate 255 172 254 0
172 -255 0
254 -255 0
-172 -254 255 0
c gate 256 141 -255 0
141 -256 0
-255 -256 0
-141 255 256 0
c gate 257 -141 254 0
-141 -257 0
254 -257 0
141 -254 257 0
c gate 258 -256 -257 0
-256 -258 0
-257 -258 0
256 257 258 0
c gate 259 -253 -258 0
-253 -259 0
-258 -259 0
253 258 259 0
c gate 260 211 259 0
211 -260 0
259 -260 0
-211 -259 260 0
c gate 261 111 179 0
111 -261 0
179 -261 0
-111 -179 261 0
c gate 262 -180 -261 0
-180 -262 0
-261 -262 0
180 261 262 0
c gate 263 111 150 0
111 -263 0
150 -263 0
-111 -150 263 0
c gate 264 -151 -263 0
-151 -264 0
-263 -264 0
151 263 264 0
c gate 265 262 -264 0
262 -265 0
-264 -265 0
-262 264 265 0
c gate 266 -262 264 0
-262 -266 0
264 -266 0
262 -264 266 0
c gate 267 -265 -266 0
-265 -267 0
-266 -267 0
265 266 267 0
c gate 268 -111 -267 0
-111 -268 0
-267 -268 0
111 267 268 0
c gate 269 102 181 0
102 -269 0
181 -269 0
-102 -181 269 0
c gate 270 -182 -269 0
-182 -270 0
-269 -270 0
182 269 270 0
c gate 271 268 -270 0
268 -271 0
-270 -271 0
-268 270 271 0
c gate 272 145 147 0
145 -272 0
147 -272 0
-145 -147 272 0
c gate 273 -148 -272 0
-148 -273 0
-272 -273 0
148 272 273 0
c gate 274 210 -273 0
210 -274 0
-273 -274 0
-210 273 274 0
c gate 275 -210 273 0
-210 -275 0
273 -275 0
210 -273 275 0
c gate 276 147 -175 0
147 -276 0
-175 -276 0
-147 175 276 0
c gate 277 -177 -276 0
-177 -277 0
-276 -277 0
177 276 277 0
c gate 278 -275 277 0
-275 -278 0
277 -278 0
275 -277 278 0
c gate 279 -274 -278 0
-274 -279 0
-278 -279 0
274 278 279 0
c gate 280 -266 279 0
-266 -280 0
279 -280 0
266 -279 280 0
c gate 281 -265 -280 0
-265 -281 0
-280 -281 0
265 280 281 0
c gate 282 -268 281 0
-268 -282 0
281 -282 0
268 -281 282 0
c gate 283 -271 -282 0
-271 -283 0
-282 -283 0
271 282 283 0
c gate 284 -211 283 0
-211 -284 0
283 -284 0
211 -283 284 0
c gate 285 -102 268 0
-102 -285 0
268 -285 0
102 -268 285 0
c gate 286 -284 -285 0
-284 -286 0
-285 -286 0
284 285 286 0
c gate 287 -193 -199 0
-193 -287 0
-199 -287 0
193 199 287 0
c gate 288 160 -194 0
160 -288 0
-194 -288 0
-160 194 288 0
c gate 289 -108 -157 0
-108 -289 0
-157 -289 0
108 157 289 0
c gate 290 -195 289 0
-195 -290 0
289 -290 0
195 -289 290 0
c gate 291 -288 290 0
-288 -291 0
290 -291 0
288 -290 291 0
c gate 292 183 -289 0
183 -292 0
-289 -292 0
-183 289 292 0
c gate 293 80 -292 0
80 -293 0
-292 -293 0
-80 292 293 0
c gate 294 -291 293 0
-291 -294 0
293 -294 0
291 -293 294 0
c gate 295 -80 -179 0
-80 -295 0
-179 -295 0
80 179 295 0
c gate 296 285 -295 0
285 -296 0
-295 -296 0
-285 295 296 0
c gate 297 -294 296 0
-294 -297 0
296 -297 0
294 -296 297 0
c gate 298 -200 -297 0
-200 -298 0
-297 -298 0
200 297 298 0
c gate 299 -287 -298 0
-287 -299 0
-298 -299 0
287 298 299 0
c gate 300 -286 -299 0
-286 -300 0
-299 -300 0
286 299 300 0
c gate 301 -260 -300 0
-260 -301 0
-300 -301 0
260 300 301 0
c gate 302 204 301 0
204 -302 0
301 -302 0
-204 -301 302 0
c gate 303 -88 -202 0
-88 -303 0
-202 -303 0
88 202 303 0
c gate 304 73 -111 0
73 -304 0
-111 -304 0
-73 111 304 0
c gate 305 -94 304 0
-94 -305 0
304 -305 0
94 -304 305 0
c gate 306 -114 147 0
-114 -306 0
147 -306 0
114 -147 306 0
c gate 307 -254 306 0
-254 -307 0
306 -307 0
254 -306 307 0
c gate 308 64 -307 0
64 -308 0
-307 -308 0
-64 307 308 0
c gate 309 -139 -308 0
-139 -309 0
-308 -309 0
139 308 309 0
c gate 310 88 -309 0
88 -310 0
-309 -310 0
-88 309 310 0
c gate 311 -305 -310 0
-305 -311 0
-310 -311 0
305 310 311 0
c gate 312 -303 311 0
-303 -312 0
311 -312 0
303 -311 312 0
c gate 313 -302 312 0
-302 -313 0
312 -313 0
302 -312 313 0
c gate 314 107 -313 0
107 -314 0
-313 -314 0
-107 313 314 0
c gate 315 77 98 0
77 -315 0
98 -315 0
-77 -98 315 0
c gate 316 -163 -194 0
-163 -316 0
-194 -316 0
163 194 316 0
c gate 317 -289 316 0
-289 -317 0
316 -317 0
289 -316 317 0
c gate 318 315 -317 0
315 -318 0
-317 -318 0
-315 317 318 0
c gate 319 105 -318 0
105 -319 0
-318 -319 0
-105 318 319 0
c gate 320 -314 319 0
-314 -320 0
319 -320 0
314 -319 320 0
c gate 321 236 -249 0
236 -321 0
-249 -321 0
-236 249 321 0
c gate 322 -218 -321 0
-218 -322 0
-321 -322 0
218 321 322 0
c gate 323 -212 322 0
-212 -323 0
322 -323 0
212 -322 323 0
c gate 324 -258 -323 0
-258 -324 0
-323 -324 0
258 323 324 0
c gate 325 283 324 0
283 -325 0
324 -325 0
-283 -324 325 0
c gate 326 286 -325 0
286 -326 0
-325 -326 0
-286 325 326 0
c gate 327 -299 -326 0
-299 -327 0
-326 -327 0
299 326 327 0
c gate 328 204 -327 0
204 -328 0
-327 -328 0
-204 327 328 0
c gate 329 312 -328 0
312 -329 0
-328 -329 0
-312 328 329 0
c gate 330 -320 329 0
-320 -330 0
329 -330 0
320 -329 330 0
c gate 331 -313 320 0
-313 -331 0
320 -331 0
313 -320 331 0
c gate 332 -107 -331 0
-107 -332 0
-331 -332 0
107 331 332 0
c gate 333 -330 332 0
-330 -333 0
332 -333 0
330 -332 333 0
c PO
333 0
